15
53 58 40 73 74 22 41 89
21 72 75 56 23
26 4 55 25 39 67
28 12 80 68 29 24 54
76 77 3 79 33 78 34
50 81 9 51 71 35 65
69 1 70 30 20 66 32
27 31 10 62 11 63 90 64
52 88 7 19 47 49
18 60 83 8 45 17 46 48 82 36
6 99 5 84 61 16 86
96 59 93 85 91
94 92 37 98 100 44 38
13 95 97 87 42 14
2 57 15 43
